data/solutions/exact100kb/instance070.txt
VALUE 32
34 2
15 7
16 15
32 24
31 27
31 29
31 15
32 31
34 33
42 34
44 36
38 34
42 41
44 42
48 44
48 16
49 33
58 42
63 31

